nN = 5;
nR = 20;
nH = 1;

a = [[15, 12, 16, 15, 20, 18, 11, 14, 23, 14, 18, 13, 11, 15, 17, 18, 20, 11, 20, 24], [22, 14, 10, 15, 12, 21, 24, 16, 17, 22, 11, 15, 18, 15, 18, 23, 22, 23, 21, 13], [25, 11, 22, 10, 22, 17, 22, 12, 21, 21, 16, 14, 23, 21, 14, 17, 25, 18, 15, 15], [23, 13, 14, 25, 21, 18, 23, 19, 17, 18, 20, 20, 22, 24, 23, 13, 17, 22, 20, 21], [15, 25, 22, 14, 17, 21, 16, 21, 20, 12, 15, 18, 17, 21, 20, 20, 13, 14, 23, 14]];
c = [[[0, 0, 0, 0, 0, 0, 0, 0, 0, 0, 0, 0, 0, 0, 0, 0, 0, 0, 0, 0], [32, 40, 37, 44, 37, 45, 39, 30, 33, 38, 34, 32, 37, 40, 36, 37, 44, 41, 41, 36], [41, 48, 31, 35, 47, 35, 35, 50, 42, 31, 33, 34, 39, 41, 44, 47, 45, 31, 38, 31], [38, 45, 41, 50, 49, 41, 46, 40, 48, 33, 36, 39, 32, 44, 34, 47, 47, 38, 30, 50], [34, 36, 46, 36, 40, 35, 44, 41, 43, 43, 48, 34, 39, 49, 34, 49, 34, 30, 49, 46]], [[0, 0, 0, 0, 0, 0, 0, 0, 0, 0, 0, 0, 0, 0, 0, 0, 0, 0, 0, 0], [0, 0, 0, 0, 0, 0, 0, 0, 0, 0, 0, 0, 0, 0, 0, 0, 0, 0, 0, 0], [42, 34, 42, 45, 34, 32, 41, 33, 41, 36, 50, 46, 35, 33, 36, 45, 48, 43, 50, 35], [43, 42, 50, 44, 38, 37, 49, 48, 36, 49, 50, 35, 31, 45, 49, 43, 40, 49, 36, 50], [31, 36, 35, 37, 33, 34, 36, 40, 50, 36, 50, 42, 33, 48, 34, 47, 30, 33, 32, 38]], [[0, 0, 0, 0, 0, 0, 0, 0, 0, 0, 0, 0, 0, 0, 0, 0, 0, 0, 0, 0], [0, 0, 0, 0, 0, 0, 0, 0, 0, 0, 0, 0, 0, 0, 0, 0, 0, 0, 0, 0], [0, 0, 0, 0, 0, 0, 0, 0, 0, 0, 0, 0, 0, 0, 0, 0, 0, 0, 0, 0], [31, 30, 37, 41, 45, 44, 47, 48, 44, 35, 44, 41, 32, 48, 40, 49, 38, 34, 31, 33], [39, 39, 50, 47, 49, 32, 47, 32, 44, 40, 30, 48, 35, 44, 47, 40, 36, 38, 31, 47]], [[0, 0, 0, 0, 0, 0, 0, 0, 0, 0, 0, 0, 0, 0, 0, 0, 0, 0, 0, 0], [0, 0, 0, 0, 0, 0, 0, 0, 0, 0, 0, 0, 0, 0, 0, 0, 0, 0, 0, 0], [0, 0, 0, 0, 0, 0, 0, 0, 0, 0, 0, 0, 0, 0, 0, 0, 0, 0, 0, 0], [0, 0, 0, 0, 0, 0, 0, 0, 0, 0, 0, 0, 0, 0, 0, 0, 0, 0, 0, 0], [39, 39, 38, 35, 37, 46, 40, 43, 45, 41, 34, 33, 36, 42, 50, 47, 38, 45, 37, 37]], [[0, 0, 0, 0, 0, 0, 0, 0, 0, 0, 0, 0, 0, 0, 0, 0, 0, 0, 0, 0], [0, 0, 0, 0, 0, 0, 0, 0, 0, 0, 0, 0, 0, 0, 0, 0, 0, 0, 0, 0], [0, 0, 0, 0, 0, 0, 0, 0, 0, 0, 0, 0, 0, 0, 0, 0, 0, 0, 0, 0], [0, 0, 0, 0, 0, 0, 0, 0, 0, 0, 0, 0, 0, 0, 0, 0, 0, 0, 0, 0], [0, 0, 0, 0, 0, 0, 0, 0, 0, 0, 0, 0, 0, 0, 0, 0, 0, 0, 0, 0]]];

q = [[[11], [11], [5], [25], [10], [17], [16], [20], [5], [20], [14], [10], [15], [6], [11], [14], [13], [8], [15], [11]], [[17], [17], [12], [23], [16], [25], [13], [16], [19], [16], [24], [17], [24], [6], [6], [16], [25], [21], [5], [18]], [[13], [13], [20], [17], [8], [7], [16], [9], [23], [18], [21], [24], [11], [15], [12], [24], [19], [23], [13], [12]], [[6], [10], [18], [16], [12], [25], [17], [7], [10], [6], [20], [20], [9], [20], [11], [21], [6], [9], [20], [23]], [[7], [14], [18], [24], [7], [24], [18], [19], [18], [23], [15], [16], [14], [9], [16], [25], [15], [20], [23], [17]]];
Q = [[42], [54], [52], [47], [55]];
